Si 
 1.0000000000000000
     5.4211486881724280    0.0000000000000000    0.0000000000000000
     0.0000000000000000    5.4211486881724280    0.0000000000000000
     0.0000000000000000    0.0000000000000000   32.9081587732088963
Si
  24
Cartesian
  0.0000000000000000  0.0000000000000000  9.0000000000000000
  0.0000000000000000  2.7105743440862140 11.7105743440862149
  2.7105743440862140  2.7105743440862140  9.0000000000000000
  2.7105743440862140  0.0000000000000000 11.7105743440862149
  4.0658613968640402  1.3552871720431070 13.0658613968640402
  1.3552871720431070  1.3552871720431070 10.3552871720431074
  1.3552871720431070  4.0658613968640402 13.0658613968640402
  4.0658613968640402  4.0658613968640402 10.3552871720431074
  0.0000000000000000  0.0000000000000000 14.4211486881724280
  0.0000000000000000  2.7105743440862140 17.1317230322586411
  2.7105743440862140  2.7105743440862140 14.4211486881724280
  2.7105743440862140  0.0000000000000000 17.1317230322586411
  4.0658613968640402  1.3552871720431070 18.4870100850364700
  1.3552871720431070  1.3552871720431070 15.7764358602155355
  1.3552871720431070  4.0658613968640402 18.4870100850364700
  4.0658613968640402  4.0658613968640402 15.7764358602155355
  0.0000000000000000  0.0000000000000000 19.8422973763448560
  0.0000000000000000  2.7105743440862140 22.5528717204310709
  2.7105743440862140  2.7105743440862140 19.8422973763448560
  2.7105743440862140  0.0000000000000000 22.5528717204310709
  4.0658613968640402  1.3552871720431070 23.9081587732088963
  1.3552871720431070  1.3552871720431070 21.1975845483879652
  1.3552871720431070  4.0658613968640402 23.9081587732088963
  4.0658613968640402  4.0658613968640402 21.1975845483879652
